
  22   10
  10   10   10   10   10   10   10   10   10   10

   0   0   0   0   0   0   0   0   0   0   0   2 2 6 
   6   0   0   0   0   0   0   0  10   0   0   1 3 
   8   0   0   0   0  10   0   0   0   0   0   2 5 4 
   1   0   0   0   0   0  10   0   0   0   0   1 7 
   4   0  10   0   0   0   0   0   0   0   0   1 7 
   5   0   0   0   0   0   0  10   0   0   0   1 7 
   8   0   0   0   0   0   0  10   0   0   0   1 8 
   1   0   0   0   0   0   0   0   0  10   0   2 11 9 
   1   0   0  10   0   0   0   0   0   0   0   1 10 
   8   0   0   0   0  10   0   0   0   0   0   1 12 
   7   0   0   0  10   0   0   0   0   0   0   1 12 
   3   0   0   0  10   0   0   0   0   0   0   2 16 13 
   8   0  10   0   0   0   0   0   0   0   0   1 14 
   8  10   0   0   0   0   0   0   0   0   0   1 15 
   1   0  10   0   0   0   0   0   0   0   0   1 17 
   7   0   0  10   0   0   0   0   0   0   0   1 17 
   8   0   0   0   0   0   0  10   0   0   0   2 19 18 
   2  10   0   0   0   0   0   0   0   0   0   2 21 20 
   1   0   0   0  10   0   0   0   0   0   0   1 20 
   3   0   0   0   0   0   0   0  10   0   0   1 22
   1   0   0  10   0   0   0   0   0   0   0   1 22
   0   0   0   0   0   0   0   0   0   0   0   0 
